20 1 4
489 552 798 893 63 975 799 378 131 132 607 895 123 178 455 117 253 167 644 375 
131 461 285 972 498 956 597 397 531 71 846 20 623 644 913 685 618 711 62 749 
842 668 644 965 846 98 81 99 265 725 474 395 185 758 367 683 714 964 79 245 
35 925 264 657 568 176 341 186 886 403 935 728 70 579 693 916 676 774 14 941 
4980 4870 3360 6830 2450 7020 3660 9590 6660 4450 2030 7000 3690 4660 3560 9370 6420 6960 1220 5280 
52030
